(set-info :SMT-LIB-VERSION 2.6)
(set-logic UFLIA)
(set-info :SOURCE |Benchmarks from the paper: "Extending Sledgehammer with SMT Solvers" by Jasmin Blanchette, Sascha Bohme, and Lawrence C. Paulson, CADE 2011.  Translated to SMT2 by Andrew Reynolds and Morgan Deters.|)
(set-info :CATEGORY "industrial")
(set-info :STATUS UNKNOWN)
(declare-fun F12 ( Int) Int)
(declare-fun F17 ( Int) Int)
(assert (forall ((?V0 Int)) (= (F17 (F12 ?V0)) ?V0)))
(assert (forall ((?V0 Int)) (=> (<= 0 ?V0) (= (F12 (F17 ?V0)) ?V0))))
(assert (forall ((?V0 Int)) (=> (< ?V0 0) (= (F12 (F17 ?V0)) 0))))
(check-sat)
(exit)
